# 5239
param k := 6;
param n := 50;
param s := 1;
set E :=  (0,11) (0,12) (0,37) (1,2) (2,20) (3,49) (4,17) (4,22) (5,17) (5,36) (6,36) (6,43) (7,21) (7,27) (8,10) (8,47) (9,33) (11,20) (11,29) (12,13) (12,25) (13,19) (13,32) (14,33) (15,24) (15,34) (16,22) (17,46) (18,30) (18,39) (18,49) (19,38) (20,31) (22,34) (23,33) (23,43) (24,28) (25,41) (26,38) (26,42) (27,33) (28,47) (30,34) (35,45) (35,48) (36,38) (37,40) (38,47) (41,48) (42,44);